p cnf 10 20
3 -9 2 0
3 8 9 0
10 4 -3 0
5 -7 -2 0
7 9 1 0
-8 4 -7 0
-1 -10 -9 0
6 3 -8 0
-1 -7 -3 0
-10 -9 1 0
-2 4 8 0
8 1 9 0
-8 9 10 0
9 -2 1 0
-3 -6 5 0
-6 -4 -3 0
-10 6 -5 0
7 3 5 0
3 6 1 0
-10 7 -9 0
